(declare-fun temp35857_1 () (_ BitVec 64))
(declare-fun temp35857_2 () (_ BitVec 64))
(declare-fun var77740 () (_ BitVec 64))
(declare-fun k!0 () Bool)
(declare-fun ARGNAME_input_1_NAMEEND_DIM () (_ BitVec 64))
(declare-fun ARGNAME_data_format_NAMEEND_STRFMT () (_ BitVec 64))
(declare-fun temp35857_3 () (_ BitVec 64))
(declare-fun ARGNAME_input_2_NAMEEND_DIM () (_ BitVec 64))
(declare-fun var77770 () (_ BitVec 64))
(declare-fun temp35857_4 () (_ BitVec 64))
(declare-fun temp35857_5 () (_ BitVec 64))
(declare-fun ARGNAME_input_1_NAMEEND_DIMSIZE
             ()
             (Array (_ BitVec 64) (_ BitVec 64)))
(declare-fun temp35857_6 () (_ BitVec 64))
(declare-fun temp35857_7 () (_ BitVec 64))
(declare-fun temp35857_8 () (_ BitVec 64))
(declare-fun temp35857_9 () (_ BitVec 64))
(declare-fun temp35857_10 () (_ BitVec 64))
(declare-fun temp35857_11 () (_ BitVec 64))
(declare-fun temp35857_12 () (_ BitVec 64))
(declare-fun temp35857_13 () (_ BitVec 64))
(declare-fun temp35857_14 () (_ BitVec 64))
(declare-fun temp35857_15 () (_ BitVec 64))
(declare-fun temp35857_16 () (_ BitVec 64))
(declare-fun temp35857_17 () (_ BitVec 64))
(declare-fun temp35857_18 () (_ BitVec 64))
(declare-fun var77799 () (_ BitVec 64))
(declare-fun temp35857_19 () (_ BitVec 64))
(declare-fun ARGNAME_input_2_NAMEEND_DIMSIZE
             ()
             (Array (_ BitVec 64) (_ BitVec 64)))
(declare-fun temp35857_20 () (_ BitVec 64))
(declare-fun temp35857_21 () (_ BitVec 64))
(declare-fun temp35857_22 () (_ BitVec 64))
(declare-fun temp35857_23 () (_ BitVec 64))
(declare-fun temp35857_24 () (_ BitVec 64))
(declare-fun temp35857_25 () (_ BitVec 64))
(declare-fun temp35857_26 () (_ BitVec 64))
(declare-fun temp35857_27 () (_ BitVec 64))
(declare-fun temp35857_28 () (_ BitVec 64))
(declare-fun temp35857_29 () (_ BitVec 64))
(declare-fun temp35857_30 () (_ BitVec 64))
(declare-fun temp35857_31 () (_ BitVec 64))
(declare-fun temp35857_32 () (_ BitVec 64))
(declare-fun var77832 () (_ BitVec 64))
(declare-fun temp35857_33 () (_ BitVec 64))
(declare-fun temp35857_34 () (_ BitVec 64))
(declare-fun var77833 () (_ BitVec 64))
(declare-fun var77834 () (_ BitVec 64))
(declare-fun temp35857_35 () (_ BitVec 64))
(declare-fun temp35857_36 () (_ BitVec 64))
(declare-fun var275510 () (_ BitVec 64))
(declare-fun temp35857_37 () (_ BitVec 64))
(declare-fun var275528 () (_ BitVec 64))
(declare-fun temp35857_38 () (_ BitVec 64))
(declare-fun temp35857_40 () (_ BitVec 64))
(declare-fun temp35857_39 () (_ BitVec 64))
(declare-fun temp35857_42 () (_ BitVec 64))
(declare-fun temp35857_41 () (_ BitVec 64))
(declare-fun temp35857_43 () (_ BitVec 64))
(declare-fun var406582 () (_ BitVec 64))
(declare-fun temp35857_44 () (_ BitVec 64))
(declare-fun var406600 () (_ BitVec 64))
(declare-fun temp35857_45 () (_ BitVec 64))
(declare-fun temp35857_47 () (_ BitVec 64))
(declare-fun temp35857_46 () (_ BitVec 64))
(declare-fun temp35857_49 () (_ BitVec 64))
(declare-fun temp35857_48 () (_ BitVec 64))
(declare-fun temp35857_50 () (_ BitVec 64))
(declare-fun var537654 () (_ BitVec 64))
(declare-fun temp35857_51 () (_ BitVec 64))
(declare-fun var537672 () (_ BitVec 64))
(declare-fun temp35857_52 () (_ BitVec 64))
(declare-fun temp35857_54 () (_ BitVec 64))
(declare-fun temp35857_53 () (_ BitVec 64))
(declare-fun temp35857_56 () (_ BitVec 64))
(declare-fun temp35857_55 () (_ BitVec 64))
(declare-fun temp35857_58 () (_ BitVec 64))
(declare-fun temp35857_57 () (_ BitVec 64))
(declare-fun temp35857_59 () (_ BitVec 64))
(declare-fun var730187 () (_ BitVec 64))
(declare-fun var730166 () (_ BitVec 64))
(declare-fun var664598 () (_ BitVec 64))
(declare-fun temp35857_60 () (_ BitVec 64))
(declare-fun temp35857_62 () (_ BitVec 64))
(declare-fun temp35857_61 () (_ BitVec 64))
(declare-fun temp35857_64 () (_ BitVec 64))
(declare-fun temp35857_63 () (_ BitVec 64))
(declare-fun temp35857_66 () (_ BitVec 64))
(declare-fun temp35857_65 () (_ BitVec 64))
(declare-fun temp35857_67 () (_ BitVec 64))
(declare-fun var926770 () (_ BitVec 64))
(declare-fun temp35857_68 () (_ BitVec 64))
(declare-fun var926771 () (_ BitVec 64))
(declare-fun var926772 () (_ BitVec 64))
(declare-fun var926768 () (_ BitVec 64))
(declare-fun var599004 () (_ BitVec 64))
(declare-fun temp35857_69 () (_ BitVec 64))
(declare-fun var992306 () (_ BitVec 64))
(declare-fun temp35857_70 () (_ BitVec 64))
(declare-fun var992307 () (_ BitVec 64))
(declare-fun var992308 () (_ BitVec 64))
(declare-fun var992304 () (_ BitVec 64))
(declare-fun var599011 () (_ BitVec 64))
(declare-fun temp35857_71 () (_ BitVec 64))
(declare-fun var1057842 () (_ BitVec 64))
(declare-fun temp35857_72 () (_ BitVec 64))
(declare-fun var1057843 () (_ BitVec 64))
(declare-fun var1057844 () (_ BitVec 64))
(declare-fun var1057840 () (_ BitVec 64))
(declare-fun var599016 () (_ BitVec 64))
(declare-fun var78095 () (_ BitVec 64))
(declare-fun temp35857_73 () (_ BitVec 64))
(declare-fun temp35857_74 () (_ BitVec 64))
(declare-fun var78096 () (_ BitVec 64))
(declare-fun var78179 () (_ BitVec 64))
(declare-fun temp35857_76 () (_ BitVec 64))
(declare-fun temp35857_75 () (_ BitVec 64))
(declare-fun temp35857_78 () (_ BitVec 64))
(declare-fun temp35857_77 () (_ BitVec 64))
(declare-fun temp35857_79 () (_ BitVec 64))
(declare-fun var78544 () (_ BitVec 64))
(declare-fun temp35857_80 () (_ BitVec 64))
(declare-fun var78545 () (_ BitVec 64))
(assert (or (= ARGNAME_data_format_NAMEEND_STRFMT #x0000000000000000)
    (= ARGNAME_data_format_NAMEEND_STRFMT #x0000000000000001)
    (= ARGNAME_data_format_NAMEEND_STRFMT #x0000000000000002)
    (= ARGNAME_data_format_NAMEEND_STRFMT #x0000000000000003)
    (= ARGNAME_data_format_NAMEEND_STRFMT #x0000000000000004)
    (= ARGNAME_data_format_NAMEEND_STRFMT #x0000000000000005)))
(assert (= temp35857_1 #x0000000000000005))
(assert (= var77740
   (ite (= ARGNAME_input_1_NAMEEND_DIM temp35857_1)
        #x0000000000000001
        #x0000000000000000)))
(assert (= temp35857_2 #x0000000000000001))
(assert (= var77740 temp35857_2))
(assert (= temp35857_3 #x0000000000000005))
(assert (= var77770
   (ite (= ARGNAME_input_2_NAMEEND_DIM temp35857_3)
        #x0000000000000001
        #x0000000000000000)))
(assert (= temp35857_4 #x0000000000000001))
(assert (= var77770 temp35857_4))
(assert (= temp35857_5 #x0000000000000000))
(assert (= temp35857_6 (select ARGNAME_input_1_NAMEEND_DIMSIZE temp35857_5)))
(assert (= temp35857_7 #x0000000000000001))
(assert (= temp35857_8 (select ARGNAME_input_1_NAMEEND_DIMSIZE temp35857_7)))
(assert (= temp35857_9 #x0000000000000002))
(assert (= temp35857_10 (select ARGNAME_input_1_NAMEEND_DIMSIZE temp35857_9)))
(assert (= temp35857_11 #x0000000000000003))
(assert (= temp35857_12 (select ARGNAME_input_1_NAMEEND_DIMSIZE temp35857_11)))
(assert (= temp35857_13 #x0000000000000004))
(assert (= temp35857_14 (select ARGNAME_input_1_NAMEEND_DIMSIZE temp35857_13)))
(assert (= temp35857_15 #x0000000000000005))
(assert (= temp35857_16 (select ARGNAME_input_1_NAMEEND_DIMSIZE temp35857_15)))
(assert (= temp35857_17 #x0000000000000003))
(assert (= temp35857_18 (select ARGNAME_input_1_NAMEEND_DIMSIZE temp35857_17)))
(assert (= var77799 temp35857_18))
(assert (= temp35857_19 #x0000000000000000))
(assert (= temp35857_20 (select ARGNAME_input_2_NAMEEND_DIMSIZE temp35857_19)))
(assert (= temp35857_21 #x0000000000000001))
(assert (= temp35857_22 (select ARGNAME_input_2_NAMEEND_DIMSIZE temp35857_21)))
(assert (= temp35857_23 #x0000000000000002))
(assert (= temp35857_24 (select ARGNAME_input_2_NAMEEND_DIMSIZE temp35857_23)))
(assert (= temp35857_25 #x0000000000000003))
(assert (= temp35857_26 (select ARGNAME_input_2_NAMEEND_DIMSIZE temp35857_25)))
(assert (= temp35857_27 #x0000000000000004))
(assert (= temp35857_28 (select ARGNAME_input_2_NAMEEND_DIMSIZE temp35857_27)))
(assert (= temp35857_29 #x0000000000000005))
(assert (= temp35857_30 (select ARGNAME_input_2_NAMEEND_DIMSIZE temp35857_29)))
(assert (= temp35857_31 #x0000000000000004))
(assert (= temp35857_32 (select ARGNAME_input_2_NAMEEND_DIMSIZE temp35857_31)))
(assert (= var77832 temp35857_32))
(assert (= temp35857_33 #x0000000000000004))
(assert (= temp35857_34 (select ARGNAME_input_1_NAMEEND_DIMSIZE temp35857_33)))
(assert (= var77833 temp35857_34))
(assert (= var77834 (ite (= var77832 var77833) #x0000000000000001 #x0000000000000000)))
(assert (= temp35857_35 #x0000000000000001))
(assert (= var77834 temp35857_35))
(assert (= temp35857_36 #x0000000000000001))
(assert (= var275510 temp35857_36))
(assert (= temp35857_37 #x0000000000000001))
(assert (= var275528
   (ite (bvslt var275510 temp35857_37) #x0000000000000001 #x0000000000000000)))
(assert (= temp35857_38 #x0000000000000000))
(assert (= var275528 temp35857_38))
(assert (= temp35857_40 #x0000000000000000))
(assert (= temp35857_39 temp35857_40))
(assert (= temp35857_42 #x0000000000000000))
(assert (= temp35857_41 temp35857_42))
(assert (= temp35857_43 #x0000000000000001))
(assert (= var406582 temp35857_43))
(assert (= temp35857_44 #x0000000000000001))
(assert (= var406600
   (ite (bvslt var406582 temp35857_44) #x0000000000000001 #x0000000000000000)))
(assert (= temp35857_45 #x0000000000000000))
(assert (= var406600 temp35857_45))
(assert (= temp35857_47 #x0000000000000000))
(assert (= temp35857_46 temp35857_47))
(assert (= temp35857_49 #x0000000000000000))
(assert (= temp35857_48 temp35857_49))
(assert (= temp35857_50 #x0000000000000001))
(assert (= var537654 temp35857_50))
(assert (= temp35857_51 #x0000000000000001))
(assert (= var537672
   (ite (bvslt var537654 temp35857_51) #x0000000000000001 #x0000000000000000)))
(assert (= temp35857_52 #x0000000000000000))
(assert (= var537672 temp35857_52))
(assert (= temp35857_54 #x00000000000000ff))
(assert (= temp35857_53 temp35857_54))
(assert (= temp35857_56 #x00000000000000ff))
(assert (= temp35857_55 temp35857_56))
(assert (= temp35857_58 #x00000000000000ff))
(assert (= temp35857_57 temp35857_58))
(assert (= temp35857_59 #x0000000000000000))
(assert (= var730187 temp35857_59))
(assert (= var730166 var730187))
(assert (= var664598 var730166))
(assert (= temp35857_60 #x0000000000000000))
(assert (= var664598 temp35857_60))
(assert (= temp35857_62 #x0000000000000000))
(assert (= temp35857_61 temp35857_62))
(assert (= temp35857_64 #x0000000000000000))
(assert (= temp35857_63 temp35857_64))
(assert (= temp35857_66 #x0000000000000000))
(assert (= temp35857_65 temp35857_66))
(assert (= temp35857_67 #x0000000000008000))
(assert (= var926770 temp35857_67))
(assert (= temp35857_68 #x0000000000000001))
(assert (= var926771
   (ite (bvslt temp35857_65 temp35857_68) #x0000000000000001 #x0000000000000000)))
(assert (= var926772 (ite (= var926771 #x0000000000000001) var926770 temp35857_65)))
(assert (= var926768 var926772))
(assert (= var599004 var926768))
(assert (= temp35857_69 #x0000000000040000))
(assert (= var992306 temp35857_69))
(assert (= temp35857_70 #x0000000000000001))
(assert (= var992307
   (ite (bvslt temp35857_63 temp35857_70) #x0000000000000001 #x0000000000000000)))
(assert (= var992308 (ite (= var992307 #x0000000000000001) var992306 temp35857_63)))
(assert (= var992304 var992308))
(assert (= var599011 var992304))
(assert (= temp35857_71 #x0000000000200000))
(assert (= var1057842 temp35857_71))
(assert (= temp35857_72 #x0000000000000001))
(assert (= var1057843
   (ite (bvslt temp35857_61 temp35857_72) #x0000000000000001 #x0000000000000000)))
(assert (= var1057844 (ite (= var1057843 #x0000000000000001) var1057842 temp35857_61)))
(assert (= var1057840 var1057844))
(assert (= var599016 var1057840))
(assert (= var78095 var599016))
(assert (= temp35857_73 #x0000000000000003))
(assert (= temp35857_74 #xffffffffffffffff))
(assert (= var78179 (bvadd var78096 temp35857_74)))
(assert (= temp35857_76 #x0000000000000001))
(assert (= temp35857_75 temp35857_76))
(assert (= temp35857_78 #x0000000000000001))
(assert (= temp35857_77 temp35857_78))
(assert (= temp35857_79 #x0000000000000000))
(assert (= var78544 temp35857_79))
(assert (= temp35857_80 #x0000000000000001))
(assert (= var78545 (bvadd var78544 temp35857_80)))
(model-add temp35857_1 () (_ BitVec 64) #x0000000000000005)
(model-add temp35857_2 () (_ BitVec 64) #x0000000000000001)
(model-add var77740 () (_ BitVec 64) #x0000000000000001)
(model-del k!0)
(model-add ARGNAME_input_1_NAMEEND_DIM
           ()
           (_ BitVec 64)
           (ite k!0 #x0000000000000005 (bvnot #x0000000000000005)))

